/* Objective function */
min: 748x12 + 889x23 + 357x24 + 0.7x25 + 252x26 + 412x27 + 695x28 + 5.5x39 + 1253.5x310 + 1156.1x311 +
     1437.7x312 + 1595.6x313 + 903.8x314 + 171.8x315 + 1456.2x316 + 1220x317 + 1244.1x318 + 658.7x319 + 1091x320 + 848x321 +
     1354.2x322 + 1074.4x323 + 512.5x49 + 792.6x410 + 695.3x411 + 973x412 + 885x413 + 425x414 + 360.4x415 + 991.5x416 + 759.2x417 +
     783.2x418 + 204.1x419 + 572.6x420 + 339x421 + 893.3x422 + 613.6x423 + 893.8x59 + 394.6x510 + 297.3x511 + 575x512 +
     732.9x513 + 58.9x514 + 741.7x515 + 593.5x516 + 361.2x517 + 385.2x518 + 259.3x519 + 206.5x520 + 49.4x521 + 495.4x522 + 238.3x523 +
     1075x69 + 170x610 + 101x611 + 400x612 + 588x613 + 181x614 + 923x615 + 414x616 + 185x617 + 199x618 + 428x619 + 117x620 + 276x621 + 309x622 +
     5x623 + 1245x79 + 65.7x710 + 139.3x711 + 311.7x712 + 471.7x713 + 338.5x714 + 1090x715 + 328.4x716 + 141.5x717 + 8.4x718 + 605.9x719 +
     205.4x720 + 431.3x721 + 130.7x722 + 2016.1x723 + 1580.8x89 + 512.6x810 + 457.9x811 + 184.6x812 + 19.9x813 + 676x814 + 1441x815 + 180x816 +
     378x817 + 463x818 + 946x819 + 525x820 + 523x821 + 352x822 + 555x823;

/* Variable bounds */

   -x12 >= -394;
   x12 - x23 - x24 - x25 - x26 - x27 -x28 >= 5;
   x23 >= 64.833 ;
   x24 >= 64.833 ;
   x25 >= 64.833 ;
   x26 >= 64.833 ;
   x27 >= 64.833 ;
   x28 >= 64.833 ;
   x23 - x39 - x310 - x311 - x312 - x313 - x314 - x315 - x316 - x317 - x318 - x319 - x320 - x321 - x322 - x323 >= 0;
   x24 - x49 - x410 - x411 - x412 - x413 - x414 - x415 - x416 - x417 - x418 - x419 - x420 - x421 - x422 - x423 >= 0;
   x25 - x59 - x510 - x511 - x512 - x513 - x514 - x515 - x516 - x517 - x518 - x519 - x520 - x521 - x522 - x523 >= 0;
   x26 - x69 - x610 - x611 - x612 - x613 - x614 - x615 - x616 - x617 - x618 - x619 - x620 - x621 - x622 - x623 >= 0;
   x27 - x79 - x710 - x711 - x712 - x713 - x714 - x715 - x716 - x717 - x718 - x719 - x720 - x721 - x722 - x723 >= 0;
   x28 - x89 - x810 - x811 - x812 - x813 - x814 - x815 - x816 - x817 - x818 - x819 - x820 - x821 - x822 - x823 >= 0;
   x39  + x49  +x59  + x69  +x79  + x89  >= 154.887;
   x310 + x410 +x510 + x610 +x710 + x810 >= 91.101;
   x311 + x411 +x511 + x611 +x711 + x811 >= 26.24;
   x312 + x412 +x512 + x612 +x712 + x812 >= 17.18;
   x313 + x413 +x513 + x613 +x713 + x813 >= 16.1;
   x314 + x414 +x514 + x614 +x714 + x814 >= 15.326;
   x315 + x415 +x515 + x615 +x715 + x815 >= 14.2;
   x316 + x416 +x516 + x616 +x716 + x816 >=  8.268;
   x317 + x417 +x517 + x617 +x717 + x817 >=  5.403;
   x318 + x418 +x518 + x618 +x718 + x818 >= 3.874;
   x319 + x419 +x519 + x619 +x719 + x819 >= 3.442;
   x320 + x420 +x520 + x620 +x720 + x820 >= 3.391;
   x321 + x421 +x521 + x621 +x721 + x821 >= 3.267;
   x322 + x422 +x522 + x622 +x722 + x822 >= 3.198;
   x323 + x423 +x523 + x623 +x723 + x823 >= 3.19;

